proyfinal/src/viki/013/experimentInOfficeAgust.take6.output/857188b3-30df-4af0-bd65-983a93eb81d7.als.dat
{'cnf.clauses': '118081',
 'cnf.totvars': '69608',
 'conflict literals': '7',
 'conflicts': '6',
 'decisions': '658',
 'memused.mb': '15.28',
 'outcome': 'UNSAT',
 'propagations': '21159',
 'restarts': '1',
 'solver.msecs': 37,
 'task.msecs': 111}
