proyfinal/src/viki/013/experimentInOfficeAgust.take6.output/857188b3-30df-4af0-bd65-983a93eb81d7.als.out
Reading from standard input... Use '--help' for help.
============================[ Problem Statistics ]=============================
|                                                                             |
|  Number of variables:         69608                                         |
|  Number of clauses:          118081                                         |
|  Parse time:                   0.03 s                                       |
|                                                                             |
============================[ Search Statistics ]==============================
| Conflicts |          ORIGINAL         |          LEARNT          | Progress |
|           |    Vars  Clauses Literals |    Limit  Clauses Lit/Cl |          |
===============================================================================
===============================================================================
restarts              : 1
conflicts             : 6              (160 /sec)
decisions             : 658            (0.00 % random) (17601 /sec)
propagations          : 21159          (565976 /sec)
conflict literals     : 7              (0.00 % deleted)
Memory used           : 15.28 MB
CPU time              : 0.037385 s

UNSATISFIABLE
